
Gurobi 11.0.1 (win64) logging started Mon Apr  1 12:49:57 2024

Set parameter LogFile to value "C:\Projetos\Job_Rotation_Algorithms\Outputs\GurobiLogs\gurobi_log-output-62_wee-c27-BorbaRittModel-NoExtraConstraint-2.log"
Gurobi Optimizer version 11.0.1 build v11.0.1rc0 (win64 - Windows 10.0 (19045.2))

CPU model: 11th Gen Intel(R) Core(TM) i7-1165G7 @ 2.80GHz, instruction set [SSE2|AVX|AVX2|AVX512]
Thread count: 4 physical cores, 8 logical processors, using up to 1 threads


Gurobi 11.0.1 (win64) logging started Mon Apr  1 21:37:46 2024

Set parameter LogFile to value "C:\Projetos\Job_Rotation_Algorithms\Outputs\GurobiLogs\gurobi_log-output-62_wee-c27-BorbaRittModel-NoExtraConstraint-2.log"
Gurobi Optimizer version 11.0.1 build v11.0.1rc0 (win64 - Windows 10.0 (19045.2))

CPU model: 11th Gen Intel(R) Core(TM) i7-1165G7 @ 2.80GHz, instruction set [SSE2|AVX|AVX2|AVX512]
Thread count: 4 physical cores, 8 logical processors, using up to 1 threads


Gurobi 11.0.1 (win64) logging started Thu Apr  4 23:35:10 2024

Set parameter LogFile to value "C:\Projetos\Job_Rotation_Algorithms\Outputs\GurobiLogs\gurobi_log-output-62_wee-c27-BorbaRittModel-NoExtraConstraint-2.log"
Gurobi Optimizer version 11.0.1 build v11.0.1rc0 (win64 - Windows 10.0 (19045.2))

CPU model: 11th Gen Intel(R) Core(TM) i7-1165G7 @ 2.80GHz, instruction set [SSE2|AVX|AVX2|AVX512]
Thread count: 4 physical cores, 8 logical processors, using up to 1 threads


Gurobi 11.0.1 (win64) logging started Sat Apr  6 13:05:30 2024

Set parameter LogFile to value "C:\Projetos\Job_Rotation_Algorithms\Outputs\GurobiLogs\gurobi_log-output-62_wee-c27-BorbaRittModel-NoExtraConstraint-2.log"
Gurobi Optimizer version 11.0.1 build v11.0.1rc0 (win64 - Windows 10.0 (19045.2))

CPU model: 11th Gen Intel(R) Core(TM) i7-1165G7 @ 2.80GHz, instruction set [SSE2|AVX|AVX2|AVX512]
Thread count: 4 physical cores, 8 logical processors, using up to 1 threads


Gurobi 11.0.1 (win64) logging started Sun Apr  7 02:37:35 2024

Set parameter LogFile to value "C:\Projetos\Job_Rotation_Algorithms\Outputs\GurobiLogs\gurobi_log-output-62_wee-c27-BorbaRittModel-NoExtraConstraint-2.log"
Gurobi Optimizer version 11.0.1 build v11.0.1rc0 (win64 - Windows 10.0 (19045.2))

CPU model: 11th Gen Intel(R) Core(TM) i7-1165G7 @ 2.80GHz, instruction set [SSE2|AVX|AVX2|AVX512]
Thread count: 4 physical cores, 8 logical processors, using up to 1 threads


Gurobi 11.0.1 (win64) logging started Sun Apr  7 09:50:32 2024

Set parameter LogFile to value "C:\Projetos\Job_Rotation_Algorithms\Outputs\GurobiLogs\gurobi_log-output-62_wee-c27-BorbaRittModel-NoExtraConstraint-2.log"
Gurobi Optimizer version 11.0.1 build v11.0.1rc0 (win64 - Windows 10.0 (19045.2))

CPU model: 11th Gen Intel(R) Core(TM) i7-1165G7 @ 2.80GHz, instruction set [SSE2|AVX|AVX2|AVX512]
Thread count: 4 physical cores, 8 logical processors, using up to 1 threads


Gurobi 11.0.1 (win64) logging started Wed Apr 10 17:39:17 2024

Set parameter LogFile to value "C:\Projetos\Job_Rotation_Algorithms\Outputs\GurobiLogs\gurobi_log-output-62_wee-c27-BorbaRittModel-NoExtraConstraint-2.log"
Gurobi Optimizer version 11.0.1 build v11.0.1rc0 (win64 - Windows 10.0 (19045.2))

CPU model: 11th Gen Intel(R) Core(TM) i7-1165G7 @ 2.80GHz, instruction set [SSE2|AVX|AVX2|AVX512]
Thread count: 4 physical cores, 8 logical processors, using up to 1 threads


Gurobi 11.0.1 (win64) logging started Thu Apr 11 01:44:12 2024

Set parameter LogFile to value "C:\Projetos\Job_Rotation_Algorithms\Outputs\GurobiLogs\gurobi_log-output-62_wee-c27-BorbaRittModel-NoExtraConstraint-2.log"
Gurobi Optimizer version 11.0.1 build v11.0.1rc0 (win64 - Windows 10.0 (19045.2))

CPU model: 11th Gen Intel(R) Core(TM) i7-1165G7 @ 2.80GHz, instruction set [SSE2|AVX|AVX2|AVX512]
Thread count: 4 physical cores, 8 logical processors, using up to 1 threads


Gurobi 11.0.1 (win64) logging started Sun Apr 21 03:01:02 2024

Set parameter LogFile to value "C:\Projetos\Job_Rotation_Algorithms\Outputs\GurobiLogs\gurobi_log-output-62_wee-c27-BorbaRittModel-NoExtraConstraint-2.log"
Gurobi Optimizer version 11.0.1 build v11.0.1rc0 (win64 - Windows 10.0 (19045.2))

CPU model: 11th Gen Intel(R) Core(TM) i7-1165G7 @ 2.80GHz, instruction set [SSE2|AVX|AVX2|AVX512]
Thread count: 4 physical cores, 8 logical processors, using up to 1 threads


Gurobi 11.0.1 (win64) logging started Fri Apr 26 07:42:59 2024

Set parameter LogFile to value "C:\Projetos\Job_Rotation_Algorithms\Outputs\GurobiLogs\gurobi_log-output-62_wee-c27-BorbaRittModel-NoExtraConstraint-2.log"
Gurobi Optimizer version 11.0.1 build v11.0.1rc0 (win64 - Windows 10.0 (19045.2))

CPU model: 11th Gen Intel(R) Core(TM) i7-1165G7 @ 2.80GHz, instruction set [SSE2|AVX|AVX2|AVX512]
Thread count: 4 physical cores, 8 logical processors, using up to 1 threads


Gurobi 11.0.1 (win64) logging started Sat Apr 27 04:34:15 2024

Set parameter LogFile to value "C:\Projetos\Job_Rotation_Algorithms\Outputs\GurobiLogs\gurobi_log-output-62_wee-c27-BorbaRittModel-NoExtraConstraint-2.log"
Gurobi Optimizer version 11.0.1 build v11.0.1rc0 (win64 - Windows 10.0 (19045.2))

CPU model: 11th Gen Intel(R) Core(TM) i7-1165G7 @ 2.80GHz, instruction set [SSE2|AVX|AVX2|AVX512]
Thread count: 4 physical cores, 8 logical processors, using up to 1 threads


Gurobi 11.0.1 (win64) logging started Sat Apr 27 14:52:19 2024

Set parameter LogFile to value "C:\Projetos\Job_Rotation_Algorithms\Outputs\GurobiLogs\gurobi_log-output-62_wee-c27-BorbaRittModel-NoExtraConstraint-2.log"
Gurobi Optimizer version 11.0.1 build v11.0.1rc0 (win64 - Windows 10.0 (19045.2))

CPU model: 11th Gen Intel(R) Core(TM) i7-1165G7 @ 2.80GHz, instruction set [SSE2|AVX|AVX2|AVX512]
Thread count: 4 physical cores, 8 logical processors, using up to 1 threads


Gurobi 11.0.1 (win64) logging started Fri May  3 18:47:31 2024

Set parameter LogFile to value "C:\Projetos\Job_Rotation_Algorithms\Outputs\GurobiLogs\gurobi_log-output-62_wee-c27-BorbaRittModel-NoExtraConstraint-2.log"
Gurobi Optimizer version 11.0.1 build v11.0.1rc0 (win64 - Windows 10.0 (19045.2))

CPU model: 11th Gen Intel(R) Core(TM) i7-1165G7 @ 2.80GHz, instruction set [SSE2|AVX|AVX2|AVX512]
Thread count: 4 physical cores, 8 logical processors, using up to 1 threads

WLS license 901038 - registered to Bitka Analytics
Optimize a model with 61029 rows, 4502 columns and 187306 nonzeros
Model fingerprint: 0xc20bb54d
Variable types: 2 continuous, 4500 integer (4500 binary)
Coefficient statistics:
  Matrix range     [1e+00, 5e+01]
  Objective range  [1e+00, 1e+00]
  Bounds range     [1e+00, 5e+01]
  RHS range        [1e+00, 5e+01]
Presolve removed 14332 rows and 592 columns
Presolve time: 1.09s
Presolved: 46697 rows, 3910 columns, 143523 nonzeros
Variable types: 0 continuous, 3910 integer (3909 binary)
Root relaxation presolved: 3910 rows, 50607 columns, 147433 nonzeros


Root relaxation: objective 1.500000e+02, 8474 iterations, 0.76 seconds (0.82 work units)
Total elapsed time = 5.23s (DegenMoves)

    Nodes    |    Current Node    |     Objective Bounds      |     Work
 Expl Unexpl |  Obj  Depth IntInf | Incumbent    BestBd   Gap | It/Node Time

     0     0  150.00000    0  306          -  150.00000      -     -    7s
     0     0  150.00000    0  441          -  150.00000      -     -    8s
     0     0  150.00000    0  398          -  150.00000      -     -    8s
     0     0  150.00000    0  318          -  150.00000      -     -   13s
     0     0  150.00000    0  314          -  150.00000      -     -   13s
     0     0  150.00000    0  228          -  150.00000      -     -   15s
     0     0  150.00000    0  270          -  150.00000      -     -   15s
     0     0  150.00000    0  280          -  150.00000      -     -   18s
     0     0  150.00000    0  280          -  150.00000      -     -   18s
     0     0  150.00000    0  205          -  150.00000      -     -   24s
     0     0  150.00000    0  207          -  150.00000      -     -   25s
     0     0  150.00000    0  285          -  150.00000      -     -   28s
     0     0  150.00000    0  315          -  150.00000      -     -   29s
     0     0  150.00000    0  238          -  150.00000      -     -   31s
     0     0  150.00000    0  231          -  150.00000      -     -   31s
     0     0  150.00000    0  272          -  150.00000      -     -   37s
     0     0  150.00000    0  271          -  150.00000      -     -   38s
     0     2  150.00000    0  271          -  150.00000      -     -   47s
    10    12  150.00000    7  222          -  150.00000      -   864   50s
    48    50  150.00000   30  183          -  150.00000      -   339   55s
    89    91  150.00000   56  468          -  150.00000      -   338   60s
   124   120  150.00000   17  278          -  150.00000      -   306   65s
   169   165  150.00000   45  293          -  150.00000      -   286   70s
   214   208  150.00000   76  279          -  150.00000      -   279   75s
   254   236  150.00000   42  252          -  150.00000      -   285   80s
   303   285  150.00000   72  256          -  150.00000      -   296   85s
   351   316  150.00000   51  320          -  150.00000      -   298   90s
   403   351  150.00000   73  306          -  150.00000      -   310   95s
   458   371  150.00000   74  336          -  150.00000      -   309  100s
   504   408  150.00000   58  288          -  150.00000      -   313  105s
   565   467  150.00000   85  254          -  150.00000      -   298  110s
   574   474  150.00000   80  502          -  150.00000      -   295  122s
   575   475  150.00000   23  429          -  150.00000      -   295  136s
   577   476  150.00000   55  336          -  150.00000      -   294  141s
   579   478  150.00000   84  294          -  150.00000      -   293  150s
   581   479  150.00000   12  404          -  150.00000      -   292  157s
   583   480  150.00000   59  209          -  150.00000      -   291  161s
   585   482  150.00000   20  216          -  150.00000      -   290  174s
   586   482  150.00000   53  306          -  150.00000      -   289  175s
   587   483  150.00000   12  258          -  150.00000      -   289  182s
   590   485  150.00000   70  306          -  150.00000      -   287  185s
   591   486  150.00000   45  179          -  150.00000      -   287  192s
   593   487  150.00000   64  254          -  150.00000      -   286  200s
   596   491  150.00000   13  236          -  150.00000      -   305  206s
   601   494  150.00000   15  200          -  150.00000      -   304  212s
   613   502  150.00000   21  338          -  150.00000      -   306  215s
H  617   478                     137.0000000  150.00000  9.49%   305  218s
H  617   454                     139.0000000  150.00000  7.91%   305  218s
H  617   432                     145.0000000  150.00000  3.45%   305  218s
   626   440  150.00000   28  235  145.00000  150.00000  3.45%   306  220s
H  643   427                     146.0000000  150.00000  2.74%   308  222s
H  644   408                     147.0000000  150.00000  2.04%   308  222s
   651   415  150.00000   40  272  147.00000  150.00000  2.04%   315  225s
H  669   406                     149.0000000  150.00000  0.67%   313  227s
H  672   388                     150.0000000  150.00000  0.00%   312  234s

Explored 672 nodes (491518 simplex iterations) in 234.99 seconds (296.42 work units)
Thread count was 1 (of 8 available processors)

Solution count 7: 150 149 147 ... 137

Optimal solution found (tolerance 1.00e-03)
Best objective 1.500000000000e+02, best bound 1.500000000000e+02, gap 0.0000%
